NAME          COPTPROB
OBJSENSE
  MIN
ROWS
 N  __OBJ___
 L  C108    
 L  C138    
 L  C140    
 L  C171    
 L  C182    
COLUMNS
    MARKER    'MARKER'                 'INTORG'
    x298      __OBJ___  29
    x298      C108      -1
    x298      C140      -1
    x344      __OBJ___  61
    x344      C138      -1
    x344      C171      -1
    x782      __OBJ___  36
    x782      C140      -1
    x782      C182      -1
    x1117     __OBJ___  74
    x1117     C138      -1
    x1117     C182      -1
    x1374     __OBJ___  6
    x1374     C108      -1
    x1515     __OBJ___  28
    x1515     C108      -1
    x1515     C171      -1
    MARKER    'MARKER'                 'INTEND'
RHS
    RHS       __OBJ___  -8967
    RHS       C108      -1
    RHS       C138      -1
    RHS       C140      -1
    RHS       C171      -1
    RHS       C182      -1
BOUNDS
 UP BOUND     x298      1
 UP BOUND     x344      1
 UP BOUND     x782      1
 UP BOUND     x1117     1
 UP BOUND     x1374     1
 UP BOUND     x1515     1
ENDATA
